Ni1 S2 (SG 205) from mGM1+_Pa-3.mcif
1.0
        5.6766557693         0.0000000000         0.0000000000
        0.0000000000         5.6766557693         0.0000000000
        0.0000000000         0.0000000000         5.6766557693
   Ni    S
    4    8
Direct
     0.000000000         0.000000000         0.000000000
     0.500000000         0.500000000         0.000000000
     0.000000000         0.500000000         0.500000000
     0.500000000         0.000000000         0.500000000
     0.393579990         0.393579990         0.393579990
     0.893579960         0.106420010         0.606420040
     0.606420040         0.893579960         0.106420010
     0.106420010         0.606420040         0.893579960
     0.606420040         0.606420040         0.606420040
     0.106420010         0.893579960         0.393579990
     0.393579990         0.106420010         0.893579960
     0.893579960         0.393579990         0.106420010
